proyfinal/src/viki/013/experimentInOfficeAgust.take6.output/abaeb2c7-d13a-434e-9521-dbb41312d49a.als.dat
{'cnf.clauses': '118081',
 'cnf.totvars': '69608',
 'conflict literals': '7',
 'conflicts': '5',
 'decisions': '691',
 'memused.mb': '17.61',
 'outcome': 'UNSAT',
 'propagations': '19889',
 'restarts': '1',
 'solver.msecs': 31,
 'task.msecs': 83}
