proyfinal/src/viki/013/experimentInOfficeAgust.take6.output/abaeb2c7-d13a-434e-9521-dbb41312d49a.als.out
Reading from standard input... Use '--help' for help.
============================[ Problem Statistics ]=============================
|                                                                             |
|  Number of variables:         69608                                         |
|  Number of clauses:          118081                                         |
|  Parse time:                   0.02 s                                       |
|                                                                             |
============================[ Search Statistics ]==============================
| Conflicts |          ORIGINAL         |          LEARNT          | Progress |
|           |    Vars  Clauses Literals |    Limit  Clauses Lit/Cl |          |
===============================================================================
===============================================================================
restarts              : 1
conflicts             : 5              (158 /sec)
decisions             : 691            (0.00 % random) (21803 /sec)
propagations          : 19889          (627552 /sec)
conflict literals     : 7              (0.00 % deleted)
Memory used           : 17.61 MB
CPU time              : 0.031693 s

UNSATISFIABLE
